Data path: /scratch/opt/lxu/CFLG/benchmarks/tree_A
Instance: treeA.100.15
Result path: /scratch/opt/lxu/CFLG/results/tree_A
Solver: Gurobi
Time limit: 7200
Formulation: LEFPAI
Cover: Small
julia --project=. src/main.jl /scratch/opt/lxu/CFLG/benchmarks/tree_A treeA.100.15 /scratch/opt/lxu/CFLG/results/tree_A Gurobi 7200 LEFPAI Small
The latest version of Julia in the `release` channel is 1.11.6+0.x64.linux.gnu. You currently have `1.11.4+0.x64.linux.gnu` installed. Run:

  juliaup update

in your terminal shell to install Julia 1.11.6+0.x64.linux.gnu and update the `release` channel to that version.
/scratch/opt/lxu/CFLG/benchmarks/tree_A Gurobi 7200.0 /scratch/opt/lxu/CFLG/results/tree_A treeA.100.15 LEFPAI Small
/scratch/opt/lxu/CFLG/benchmarks/tree_A/treeA.100.15

 read graph
data loaded


after absorb:61 100

max_piece:22
problem_graph/original graph: node: 61/100 edge: 75/114 dlt: 0.3797260369487119 break_avg_len: 2.3087343046481688 break_max_len: 8.109097690182406Vbar/V, Ebar/E(35, 61, 49, 75)
Set parameter TokenServer to value "solice01.zib.de"
Set parameter Threads to value 1
Set parameter OutputFlag to value 1
Gurobi Optimizer version 12.0.1 build v12.0.1rc0 (linux64 - "Debian GNU/Linux 12 (bookworm)")

CPU model: Intel(R) Xeon(R) Gold 5122 CPU @ 3.60GHz, instruction set [SSE2|AVX|AVX2|AVX512]
Thread count: 8 physical cores, 16 logical processors, using up to 1 threads

Non-default parameters:
Threads  1

Optimize a model with 124 rows, 207 columns and 345 nonzeros
Model fingerprint: 0xec4043d4
Coefficient statistics:
  Matrix range     [1e+00, 1e+00]
  Objective range  [1e+00, 1e+00]
  Bounds range     [1e+00, 1e+00]
  RHS range        [1e+00, 1e+00]
Presolve removed 40 rows and 40 columns
Presolve time: 0.00s
Presolved: 84 rows, 167 columns, 265 nonzeros

Iteration    Objective       Primal Inf.    Dual Inf.      Time
       0    6.1000000e+01   2.700000e+01   0.000000e+00      0s
      47    3.5000000e+01   0.000000e+00   0.000000e+00      0s

Solved in 47 iterations and 0.00 seconds (0.00 work units)
Optimal objective  3.500000000e+01

User-callback calls 95, time in user-callback 0.01 sec
elapsed CPU time: 1.374324 seconds
Set parameter TokenServer to value "solice01.zib.de"
Set parameter Threads to value 1
Set parameter OutputFlag to value 1
Set parameter MIPGap to value 0.0001
Set parameter TimeLimit to value 7198.625676

 more cuts: false 0.3797260369487119 false
is_attach:trueformulation:LEFPAI49 20 20

 model loaded

Gurobi Optimizer version 12.0.1 build v12.0.1rc0 (linux64 - "Debian GNU/Linux 12 (bookworm)")

CPU model: Intel(R) Xeon(R) Gold 5122 CPU @ 3.60GHz, instruction set [SSE2|AVX|AVX2|AVX512]
Thread count: 8 physical cores, 16 logical processors, using up to 1 threads

Non-default parameters:
TimeLimit  7198.625676
Threads  1

Optimize a model with 861 rows, 657 columns and 1589 nonzeros
Model fingerprint: 0xa833f678
Model has 242 simple general constraints
  242 INDICATOR
Variable types: 193 continuous, 464 integer (464 binary)
Coefficient statistics:
  Matrix range     [8e-04, 1e+00]
  Objective range  [1e+00, 1e+00]
  Bounds range     [2e-02, 8e+00]
  RHS range        [2e-02, 8e+00]
  GenCon rhs range [2e-02, 8e+00]
  GenCon coe range [1e+00, 1e+00]
Presolve removed 502 rows and 316 columns
Presolve time: 0.01s
Presolved: 359 rows, 341 columns, 1069 nonzeros
Variable types: 144 continuous, 197 integer (197 binary)
Found heuristic solution: objective 234.0000000

Root relaxation: objective 2.044060e+02, 402 iterations, 0.00 seconds (0.00 work units)

    Nodes    |    Current Node    |     Objective Bounds      |     Work
 Expl Unexpl |  Obj  Depth IntInf | Incumbent    BestBd   Gap | It/Node Time

     0     0  204.40602    0  110  234.00000  204.40602  12.6%     -    0s
H    0     0                     226.0000000  204.40602  9.55%     -    0s
H    0     0                     224.0000000  204.40602  8.75%     -    0s
H    0     0                     223.0000000  204.40602  8.34%     -    0s
     0     0  212.00171    0  102  223.00000  212.00171  4.93%     -    0s
     0     0  212.19448    0  114  223.00000  212.19448  4.85%     -    0s
     0     0  212.19483    0  119  223.00000  212.19483  4.85%     -    0s
     0     0  214.73720    0   91  223.00000  214.73720  3.71%     -    0s
     0     0  214.87126    0   87  223.00000  214.87126  3.65%     -    0s
     0     0  214.87126    0   98  223.00000  214.87126  3.65%     -    0s
     0     0  214.87126    0   97  223.00000  214.87126  3.65%     -    0s
     0     0  215.29201    0   94  223.00000  215.29201  3.46%     -    0s
     0     0  215.49546    0   84  223.00000  215.49546  3.37%     -    0s
     0     0  215.49587    0   87  223.00000  215.49587  3.37%     -    0s
     0     0  215.78048    0   80  223.00000  215.78048  3.24%     -    0s
     0     0  216.13003    0   82  223.00000  216.13003  3.08%     -    0s
     0     0  216.13003    0   85  223.00000  216.13003  3.08%     -    0s
     0     0  216.13003    0   90  223.00000  216.13003  3.08%     -    0s
     0     0  216.13003    0   96  223.00000  216.13003  3.08%     -    0s
     0     0  216.13003    0   83  223.00000  216.13003  3.08%     -    0s
     0     0  216.18365    0   85  223.00000  216.18365  3.06%     -    0s
     0     0  216.20436    0   98  223.00000  216.20436  3.05%     -    0s
     0     0  216.20640    0   75  223.00000  216.20640  3.05%     -    0s
     0     0  216.35693    0   77  223.00000  216.35693  2.98%     -    0s
     0     0  216.46160    0   82  223.00000  216.46160  2.93%     -    0s
     0     0  216.46160    0   80  223.00000  216.46160  2.93%     -    0s
     0     0  216.46160    0   56  223.00000  216.46160  2.93%     -    0s
H    0     0                     222.0000000  216.46160  2.49%     -    0s
     0     2  216.46160    0   55  222.00000  216.46160  2.49%     -    0s
* 2642   276              30     221.0000000  219.33333  0.75%  16.2    2s
  7067    13  220.00000   18   45  221.00000  220.00000  0.45%  15.9    5s

Cutting planes:
  Learned: 2
  Gomory: 21
  Cover: 100
  Implied bound: 12
  Clique: 2
  MIR: 66
  Flow cover: 92
  GUB cover: 1
  Inf proof: 2
  Zero half: 7
  Network: 1
  RLT: 11
  Relax-and-lift: 6
  BQP: 2

Explored 7550 nodes (123047 simplex iterations) in 5.34 seconds (2.97 work units)
Thread count was 1 (of 16 available processors)

Solution count 6: 221 222 223 ... 234

Optimal solution found (tolerance 1.00e-04)
Warning: max constraint violation (1.0000e-06) exceeds tolerance
Warning: max general constraint violation (1.0000e-06) exceeds tolerance
Best objective 2.210000000000e+02, best bound 2.210000000000e+02, gap 0.0000%

User-callback calls 17793, time in user-callback 0.01 sec

 sepatime0 0 0
221.0
Stat(MathOptInterface.OPTIMAL, 221.0, 221.0, 0.0, 0.0, 1.374324, 5.3448638916015625, 7550, Main.CFLG.LEFPAI, "", #undef)
